param HOURS_PER_DAY := 32;

set EXPERTN :=
'PM.Anthony';

param EBOUND_NO := 0;

param EBOUND:
1   2   3   4   5 :=
;

param:
TASKN: TASKS TASKE TASKW :=
'delta2.pm' 2 172 120
'delta2.pf' 173 183 40
'echo2.pm' 2 22 80
'echo2.pf' 23 70 40
'foxtrot2.pm' 2 82 40
'foxtrot2.pf' 83 92 20
'gamma2.pm' 2 22 60
'gamma2.pf' 23 35 40
'golf2.pm' 2 82 160
'golf2.pf' 83 91 60
'hotel2.pm' 2 47 40
'hotel2.pf' 48 57 20
'tango2.pe' 33 48 200
'tango2.pm' 49 259 600
'tango2.pf' 260 275 120
'uniform2.pe' 122 137 200
'uniform2.pm' 138 408 640
'uniform2.pf' 409 427 80
;

param:
PAYROLLN: PAYROLLS PAYROLLE :=
'Jan.25' 1 16
'Feb.25' 17 45
'Mar.25' 46 76
'Apr.25' 77 105
'May.25' 106 139
'Jun.25' 140 170
'Jul.25' 171 199
'Aug.25' 200 230
'Sep.25' 231 259
'Oct.25' 260 289
'Nov.25' 290 317
'Dec.25' 318 346;

param:
EXPPAY: PAYROLLBL PAYROLLBU :=
'PM.Anthony' 'Jan.25' 0.0 720.0
'PM.Anthony' 'Feb.25' 0.0 720.0
'PM.Anthony' 'Mar.25' 0.0 720.0
'PM.Anthony' 'Apr.25' 0.0 720.0
'PM.Anthony' 'May.25' 0.0 720.0
'PM.Anthony' 'Jun.25' 0.0 720.0
'PM.Anthony' 'Jul.25' 0.0 720.0
'PM.Anthony' 'Aug.25' 0.0 720.0
'PM.Anthony' 'Sep.25' 0.0 720.0
'PM.Anthony' 'Oct.25' 0.0 720.0
'PM.Anthony' 'Nov.25' 0.0 720.0
'PM.Anthony' 'Dec.25' 0.0 720.0;

param OFFDAY_NO := 124;

param OFFDAY :=
1 2
2 5
3 6
4 12
5 13
6 19
7 20
8 26
9 27
10 33
11 34
12 40
13 41
14 47
15 48
16 54
17 55
18 61
19 62
20 68
21 69
22 75
23 76
24 82
25 83
26 89
27 90
28 96
29 97
30 103
31 104
32 110
33 111
34 117
35 118
36 122
37 124
38 125
39 131
40 132
41 138
42 139
43 145
44 146
45 152
46 153
47 159
48 160
49 166
50 167
51 173
52 174
53 180
54 181
55 187
56 188
57 194
58 195
59 201
60 202
61 208
62 209
63 215
64 216
65 222
66 223
67 229
68 230
69 236
70 237
71 243
72 244
73 250
74 251
75 257
76 258
77 264
78 265
79 271
80 272
81 278
82 279
83 285
84 286
85 292
86 293
87 299
88 300
89 306
90 307
91 313
92 314
93 320
94 321
95 327
96 328
97 334
98 335
99 341
100 342
101 348
102 349
103 355
104 356
105 362
106 363
107 369
108 370
109 376
110 377
111 383
112 384
113 390
114 391
115 397
116 398
117 404
118 405
119 411
120 412
121 418
122 419
123 425
124 426;

param XBDAY_NO := 754;

param XBDAY:
1   2   3   4   5 :=
1 'PM.Anthony' 'delta2.pm' 3 0.0 1.0
2 'PM.Anthony' 'delta2.pm' 4 0.0 1.0
3 'PM.Anthony' 'delta2.pm' 7 0.0 1.0
4 'PM.Anthony' 'delta2.pm' 8 0.0 1.0
5 'PM.Anthony' 'delta2.pm' 9 0.0 1.0
6 'PM.Anthony' 'delta2.pm' 10 0.0 1.0
7 'PM.Anthony' 'delta2.pm' 11 0.0 1.0
8 'PM.Anthony' 'delta2.pm' 14 0.0 1.0
9 'PM.Anthony' 'delta2.pm' 15 0.0 1.0
10 'PM.Anthony' 'delta2.pm' 16 0.0 1.0
11 'PM.Anthony' 'delta2.pm' 17 0.0 1.0
12 'PM.Anthony' 'delta2.pm' 18 0.0 1.0
13 'PM.Anthony' 'delta2.pm' 21 0.0 1.0
14 'PM.Anthony' 'delta2.pm' 22 0.0 1.0
15 'PM.Anthony' 'delta2.pm' 23 0.0 1.0
16 'PM.Anthony' 'delta2.pm' 24 0.0 1.0
17 'PM.Anthony' 'delta2.pm' 25 0.0 1.0
18 'PM.Anthony' 'delta2.pm' 28 0.0 1.0
19 'PM.Anthony' 'delta2.pm' 29 0.0 1.0
20 'PM.Anthony' 'delta2.pm' 30 0.0 1.0
21 'PM.Anthony' 'delta2.pm' 31 0.0 1.0
22 'PM.Anthony' 'delta2.pm' 32 0.0 1.0
23 'PM.Anthony' 'delta2.pm' 35 0.0 1.0
24 'PM.Anthony' 'delta2.pm' 36 0.0 1.0
25 'PM.Anthony' 'delta2.pm' 37 0.0 1.0
26 'PM.Anthony' 'delta2.pm' 38 0.0 1.0
27 'PM.Anthony' 'delta2.pm' 39 0.0 1.0
28 'PM.Anthony' 'delta2.pm' 42 0.0 1.0
29 'PM.Anthony' 'delta2.pm' 43 0.0 1.0
30 'PM.Anthony' 'delta2.pm' 44 0.0 1.0
31 'PM.Anthony' 'delta2.pm' 45 0.0 1.0
32 'PM.Anthony' 'delta2.pm' 46 0.0 1.0
33 'PM.Anthony' 'delta2.pm' 49 0.0 1.0
34 'PM.Anthony' 'delta2.pm' 50 0.0 1.0
35 'PM.Anthony' 'delta2.pm' 51 0.0 1.0
36 'PM.Anthony' 'delta2.pm' 52 0.0 1.0
37 'PM.Anthony' 'delta2.pm' 53 0.0 1.0
38 'PM.Anthony' 'delta2.pm' 56 0.0 1.0
39 'PM.Anthony' 'delta2.pm' 57 0.0 1.0
40 'PM.Anthony' 'delta2.pm' 58 0.0 1.0
41 'PM.Anthony' 'delta2.pm' 59 0.0 1.0
42 'PM.Anthony' 'delta2.pm' 60 0.0 1.0
43 'PM.Anthony' 'delta2.pm' 63 0.0 1.0
44 'PM.Anthony' 'delta2.pm' 64 0.0 1.0
45 'PM.Anthony' 'delta2.pm' 65 0.0 1.0
46 'PM.Anthony' 'delta2.pm' 66 0.0 1.0
47 'PM.Anthony' 'delta2.pm' 67 0.0 1.0
48 'PM.Anthony' 'delta2.pm' 70 0.0 1.0
49 'PM.Anthony' 'delta2.pm' 71 0.0 1.0
50 'PM.Anthony' 'delta2.pm' 72 0.0 1.0
51 'PM.Anthony' 'delta2.pm' 73 0.0 1.0
52 'PM.Anthony' 'delta2.pm' 74 0.0 1.0
53 'PM.Anthony' 'delta2.pm' 77 0.0 1.0
54 'PM.Anthony' 'delta2.pm' 78 0.0 1.0
55 'PM.Anthony' 'delta2.pm' 79 0.0 1.0
56 'PM.Anthony' 'delta2.pm' 80 0.0 1.0
57 'PM.Anthony' 'delta2.pm' 81 0.0 1.0
58 'PM.Anthony' 'delta2.pm' 84 0.0 1.0
59 'PM.Anthony' 'delta2.pm' 85 0.0 1.0
60 'PM.Anthony' 'delta2.pm' 86 0.0 1.0
61 'PM.Anthony' 'delta2.pm' 87 0.0 1.0
62 'PM.Anthony' 'delta2.pm' 88 0.0 1.0
63 'PM.Anthony' 'delta2.pm' 91 0.0 1.0
64 'PM.Anthony' 'delta2.pm' 92 0.0 1.0
65 'PM.Anthony' 'delta2.pm' 93 0.0 1.0
66 'PM.Anthony' 'delta2.pm' 94 0.0 1.0
67 'PM.Anthony' 'delta2.pm' 95 0.0 1.0
68 'PM.Anthony' 'delta2.pm' 98 0.0 1.0
69 'PM.Anthony' 'delta2.pm' 99 0.0 1.0
70 'PM.Anthony' 'delta2.pm' 100 0.0 1.0
71 'PM.Anthony' 'delta2.pm' 101 0.0 1.0
72 'PM.Anthony' 'delta2.pm' 102 0.0 1.0
73 'PM.Anthony' 'delta2.pm' 105 0.0 1.0
74 'PM.Anthony' 'delta2.pm' 106 0.0 1.0
75 'PM.Anthony' 'delta2.pm' 107 0.0 1.0
76 'PM.Anthony' 'delta2.pm' 108 0.0 1.0
77 'PM.Anthony' 'delta2.pm' 109 0.0 1.0
78 'PM.Anthony' 'delta2.pm' 112 0.0 1.0
79 'PM.Anthony' 'delta2.pm' 113 0.0 1.0
80 'PM.Anthony' 'delta2.pm' 114 0.0 1.0
81 'PM.Anthony' 'delta2.pm' 115 0.0 1.0
82 'PM.Anthony' 'delta2.pm' 116 0.0 1.0
83 'PM.Anthony' 'delta2.pm' 119 0.0 1.0
84 'PM.Anthony' 'delta2.pm' 120 0.0 1.0
85 'PM.Anthony' 'delta2.pm' 121 0.0 1.0
86 'PM.Anthony' 'delta2.pm' 123 0.0 1.0
87 'PM.Anthony' 'delta2.pm' 126 0.0 1.0
88 'PM.Anthony' 'delta2.pm' 127 0.0 1.0
89 'PM.Anthony' 'delta2.pm' 128 0.0 1.0
90 'PM.Anthony' 'delta2.pm' 129 0.0 1.0
91 'PM.Anthony' 'delta2.pm' 130 0.0 1.0
92 'PM.Anthony' 'delta2.pm' 133 0.0 1.0
93 'PM.Anthony' 'delta2.pm' 134 0.0 1.0
94 'PM.Anthony' 'delta2.pm' 135 0.0 1.0
95 'PM.Anthony' 'delta2.pm' 136 0.0 1.0
96 'PM.Anthony' 'delta2.pm' 137 0.0 1.0
97 'PM.Anthony' 'delta2.pm' 140 0.0 1.0
98 'PM.Anthony' 'delta2.pm' 141 0.0 1.0
99 'PM.Anthony' 'delta2.pm' 142 0.0 1.0
100 'PM.Anthony' 'delta2.pm' 143 0.0 1.0
101 'PM.Anthony' 'delta2.pm' 144 0.0 1.0
102 'PM.Anthony' 'delta2.pm' 147 0.0 1.0
103 'PM.Anthony' 'delta2.pm' 148 0.0 1.0
104 'PM.Anthony' 'delta2.pm' 149 0.0 1.0
105 'PM.Anthony' 'delta2.pm' 150 0.0 1.0
106 'PM.Anthony' 'delta2.pm' 151 0.0 1.0
107 'PM.Anthony' 'delta2.pm' 154 0.0 1.0
108 'PM.Anthony' 'delta2.pm' 155 0.0 1.0
109 'PM.Anthony' 'delta2.pm' 156 0.0 1.0
110 'PM.Anthony' 'delta2.pm' 157 0.0 1.0
111 'PM.Anthony' 'delta2.pm' 158 0.0 1.0
112 'PM.Anthony' 'delta2.pm' 161 0.0 1.0
113 'PM.Anthony' 'delta2.pm' 162 0.0 1.0
114 'PM.Anthony' 'delta2.pm' 163 0.0 1.0
115 'PM.Anthony' 'delta2.pm' 164 0.0 1.0
116 'PM.Anthony' 'delta2.pm' 165 0.0 1.0
117 'PM.Anthony' 'delta2.pm' 168 0.0 1.0
118 'PM.Anthony' 'delta2.pm' 169 0.0 1.0
119 'PM.Anthony' 'delta2.pm' 170 0.0 1.0
120 'PM.Anthony' 'delta2.pm' 171 0.0 1.0
121 'PM.Anthony' 'delta2.pm' 172 0.0 1.0
122 'PM.Anthony' 'delta2.pf' 175 5.0 6.0
123 'PM.Anthony' 'delta2.pf' 176 5.0 6.0
124 'PM.Anthony' 'delta2.pf' 177 5.0 6.0
125 'PM.Anthony' 'delta2.pf' 178 5.0 6.0
126 'PM.Anthony' 'delta2.pf' 179 5.0 6.0
127 'PM.Anthony' 'delta2.pf' 182 5.0 6.0
128 'PM.Anthony' 'delta2.pf' 183 5.0 6.0
129 'PM.Anthony' 'echo2.pm' 3 5.0 6.0
130 'PM.Anthony' 'echo2.pm' 4 5.0 6.0
131 'PM.Anthony' 'echo2.pm' 7 5.0 6.0
132 'PM.Anthony' 'echo2.pm' 8 5.0 6.0
133 'PM.Anthony' 'echo2.pm' 9 5.0 6.0
134 'PM.Anthony' 'echo2.pm' 10 5.0 6.0
135 'PM.Anthony' 'echo2.pm' 11 5.0 6.0
136 'PM.Anthony' 'echo2.pm' 14 5.0 6.0
137 'PM.Anthony' 'echo2.pm' 15 5.0 6.0
138 'PM.Anthony' 'echo2.pm' 16 5.0 6.0
139 'PM.Anthony' 'echo2.pm' 17 5.0 6.0
140 'PM.Anthony' 'echo2.pm' 18 5.0 6.0
141 'PM.Anthony' 'echo2.pm' 21 5.0 6.0
142 'PM.Anthony' 'echo2.pm' 22 5.0 6.0
143 'PM.Anthony' 'echo2.pf' 23 1.0 2.0
144 'PM.Anthony' 'echo2.pf' 24 1.0 2.0
145 'PM.Anthony' 'echo2.pf' 25 1.0 2.0
146 'PM.Anthony' 'echo2.pf' 28 1.0 2.0
147 'PM.Anthony' 'echo2.pf' 29 1.0 2.0
148 'PM.Anthony' 'echo2.pf' 30 1.0 2.0
149 'PM.Anthony' 'echo2.pf' 31 1.0 2.0
150 'PM.Anthony' 'echo2.pf' 32 1.0 2.0
151 'PM.Anthony' 'echo2.pf' 35 1.0 2.0
152 'PM.Anthony' 'echo2.pf' 36 1.0 2.0
153 'PM.Anthony' 'echo2.pf' 37 1.0 2.0
154 'PM.Anthony' 'echo2.pf' 38 1.0 2.0
155 'PM.Anthony' 'echo2.pf' 39 1.0 2.0
156 'PM.Anthony' 'echo2.pf' 42 1.0 2.0
157 'PM.Anthony' 'echo2.pf' 43 1.0 2.0
158 'PM.Anthony' 'echo2.pf' 44 1.0 2.0
159 'PM.Anthony' 'echo2.pf' 45 1.0 2.0
160 'PM.Anthony' 'echo2.pf' 46 1.0 2.0
161 'PM.Anthony' 'echo2.pf' 49 1.0 2.0
162 'PM.Anthony' 'echo2.pf' 50 1.0 2.0
163 'PM.Anthony' 'echo2.pf' 51 1.0 2.0
164 'PM.Anthony' 'echo2.pf' 52 1.0 2.0
165 'PM.Anthony' 'echo2.pf' 53 1.0 2.0
166 'PM.Anthony' 'echo2.pf' 56 1.0 2.0
167 'PM.Anthony' 'echo2.pf' 57 1.0 2.0
168 'PM.Anthony' 'echo2.pf' 58 1.0 2.0
169 'PM.Anthony' 'echo2.pf' 59 1.0 2.0
170 'PM.Anthony' 'echo2.pf' 60 1.0 2.0
171 'PM.Anthony' 'echo2.pf' 63 1.0 2.0
172 'PM.Anthony' 'echo2.pf' 64 1.0 2.0
173 'PM.Anthony' 'echo2.pf' 65 1.0 2.0
174 'PM.Anthony' 'echo2.pf' 66 1.0 2.0
175 'PM.Anthony' 'echo2.pf' 67 1.0 2.0
176 'PM.Anthony' 'echo2.pf' 70 1.0 2.0
177 'PM.Anthony' 'foxtrot2.pm' 3 0.0 1.0
178 'PM.Anthony' 'foxtrot2.pm' 4 0.0 1.0
179 'PM.Anthony' 'foxtrot2.pm' 7 0.0 1.0
180 'PM.Anthony' 'foxtrot2.pm' 8 0.0 1.0
181 'PM.Anthony' 'foxtrot2.pm' 9 0.0 1.0
182 'PM.Anthony' 'foxtrot2.pm' 10 0.0 1.0
183 'PM.Anthony' 'foxtrot2.pm' 11 0.0 1.0
184 'PM.Anthony' 'foxtrot2.pm' 14 0.0 1.0
185 'PM.Anthony' 'foxtrot2.pm' 15 0.0 1.0
186 'PM.Anthony' 'foxtrot2.pm' 16 0.0 1.0
187 'PM.Anthony' 'foxtrot2.pm' 17 0.0 1.0
188 'PM.Anthony' 'foxtrot2.pm' 18 0.0 1.0
189 'PM.Anthony' 'foxtrot2.pm' 21 0.0 1.0
190 'PM.Anthony' 'foxtrot2.pm' 22 0.0 1.0
191 'PM.Anthony' 'foxtrot2.pm' 23 0.0 1.0
192 'PM.Anthony' 'foxtrot2.pm' 24 0.0 1.0
193 'PM.Anthony' 'foxtrot2.pm' 25 0.0 1.0
194 'PM.Anthony' 'foxtrot2.pm' 28 0.0 1.0
195 'PM.Anthony' 'foxtrot2.pm' 29 0.0 1.0
196 'PM.Anthony' 'foxtrot2.pm' 30 0.0 1.0
197 'PM.Anthony' 'foxtrot2.pm' 31 0.0 1.0
198 'PM.Anthony' 'foxtrot2.pm' 32 0.0 1.0
199 'PM.Anthony' 'foxtrot2.pm' 35 0.0 1.0
200 'PM.Anthony' 'foxtrot2.pm' 36 0.0 1.0
201 'PM.Anthony' 'foxtrot2.pm' 37 0.0 1.0
202 'PM.Anthony' 'foxtrot2.pm' 38 0.0 1.0
203 'PM.Anthony' 'foxtrot2.pm' 39 0.0 1.0
204 'PM.Anthony' 'foxtrot2.pm' 42 0.0 1.0
205 'PM.Anthony' 'foxtrot2.pm' 43 0.0 1.0
206 'PM.Anthony' 'foxtrot2.pm' 44 0.0 1.0
207 'PM.Anthony' 'foxtrot2.pm' 45 0.0 1.0
208 'PM.Anthony' 'foxtrot2.pm' 46 0.0 1.0
209 'PM.Anthony' 'foxtrot2.pm' 49 0.0 1.0
210 'PM.Anthony' 'foxtrot2.pm' 50 0.0 1.0
211 'PM.Anthony' 'foxtrot2.pm' 51 0.0 1.0
212 'PM.Anthony' 'foxtrot2.pm' 52 0.0 1.0
213 'PM.Anthony' 'foxtrot2.pm' 53 0.0 1.0
214 'PM.Anthony' 'foxtrot2.pm' 56 0.0 1.0
215 'PM.Anthony' 'foxtrot2.pm' 57 0.0 1.0
216 'PM.Anthony' 'foxtrot2.pm' 58 0.0 1.0
217 'PM.Anthony' 'foxtrot2.pm' 59 0.0 1.0
218 'PM.Anthony' 'foxtrot2.pm' 60 0.0 1.0
219 'PM.Anthony' 'foxtrot2.pm' 63 0.0 1.0
220 'PM.Anthony' 'foxtrot2.pm' 64 0.0 1.0
221 'PM.Anthony' 'foxtrot2.pm' 65 0.0 1.0
222 'PM.Anthony' 'foxtrot2.pm' 66 0.0 1.0
223 'PM.Anthony' 'foxtrot2.pm' 67 0.0 1.0
224 'PM.Anthony' 'foxtrot2.pm' 70 0.0 1.0
225 'PM.Anthony' 'foxtrot2.pm' 71 0.0 1.0
226 'PM.Anthony' 'foxtrot2.pm' 72 0.0 1.0
227 'PM.Anthony' 'foxtrot2.pm' 73 0.0 1.0
228 'PM.Anthony' 'foxtrot2.pm' 74 0.0 1.0
229 'PM.Anthony' 'foxtrot2.pm' 77 0.0 1.0
230 'PM.Anthony' 'foxtrot2.pm' 78 0.0 1.0
231 'PM.Anthony' 'foxtrot2.pm' 79 0.0 1.0
232 'PM.Anthony' 'foxtrot2.pm' 80 0.0 1.0
233 'PM.Anthony' 'foxtrot2.pm' 81 0.0 1.0
234 'PM.Anthony' 'foxtrot2.pf' 84 2.0 3.0
235 'PM.Anthony' 'foxtrot2.pf' 85 2.0 3.0
236 'PM.Anthony' 'foxtrot2.pf' 86 2.0 3.0
237 'PM.Anthony' 'foxtrot2.pf' 87 2.0 3.0
238 'PM.Anthony' 'foxtrot2.pf' 88 2.0 3.0
239 'PM.Anthony' 'foxtrot2.pf' 91 2.0 3.0
240 'PM.Anthony' 'foxtrot2.pf' 92 2.0 3.0
241 'PM.Anthony' 'gamma2.pm' 3 4.0 5.0
242 'PM.Anthony' 'gamma2.pm' 4 4.0 5.0
243 'PM.Anthony' 'gamma2.pm' 7 4.0 5.0
244 'PM.Anthony' 'gamma2.pm' 8 4.0 5.0
245 'PM.Anthony' 'gamma2.pm' 9 4.0 5.0
246 'PM.Anthony' 'gamma2.pm' 10 4.0 5.0
247 'PM.Anthony' 'gamma2.pm' 11 4.0 5.0
248 'PM.Anthony' 'gamma2.pm' 14 4.0 5.0
249 'PM.Anthony' 'gamma2.pm' 15 4.0 5.0
250 'PM.Anthony' 'gamma2.pm' 16 4.0 5.0
251 'PM.Anthony' 'gamma2.pm' 17 4.0 5.0
252 'PM.Anthony' 'gamma2.pm' 18 4.0 5.0
253 'PM.Anthony' 'gamma2.pm' 21 4.0 5.0
254 'PM.Anthony' 'gamma2.pm' 22 4.0 5.0
255 'PM.Anthony' 'gamma2.pf' 23 4.0 5.0
256 'PM.Anthony' 'gamma2.pf' 24 4.0 5.0
257 'PM.Anthony' 'gamma2.pf' 25 4.0 5.0
258 'PM.Anthony' 'gamma2.pf' 28 4.0 5.0
259 'PM.Anthony' 'gamma2.pf' 29 4.0 5.0
260 'PM.Anthony' 'gamma2.pf' 30 4.0 5.0
261 'PM.Anthony' 'gamma2.pf' 31 4.0 5.0
262 'PM.Anthony' 'gamma2.pf' 32 4.0 5.0
263 'PM.Anthony' 'gamma2.pf' 35 4.0 5.0
264 'PM.Anthony' 'golf2.pm' 3 2.0 3.0
265 'PM.Anthony' 'golf2.pm' 4 2.0 3.0
266 'PM.Anthony' 'golf2.pm' 7 2.0 3.0
267 'PM.Anthony' 'golf2.pm' 8 2.0 3.0
268 'PM.Anthony' 'golf2.pm' 9 2.0 3.0
269 'PM.Anthony' 'golf2.pm' 10 2.0 3.0
270 'PM.Anthony' 'golf2.pm' 11 2.0 3.0
271 'PM.Anthony' 'golf2.pm' 14 2.0 3.0
272 'PM.Anthony' 'golf2.pm' 15 2.0 3.0
273 'PM.Anthony' 'golf2.pm' 16 2.0 3.0
274 'PM.Anthony' 'golf2.pm' 17 2.0 3.0
275 'PM.Anthony' 'golf2.pm' 18 2.0 3.0
276 'PM.Anthony' 'golf2.pm' 21 2.0 3.0
277 'PM.Anthony' 'golf2.pm' 22 2.0 3.0
278 'PM.Anthony' 'golf2.pm' 23 2.0 3.0
279 'PM.Anthony' 'golf2.pm' 24 2.0 3.0
280 'PM.Anthony' 'golf2.pm' 25 2.0 3.0
281 'PM.Anthony' 'golf2.pm' 28 2.0 3.0
282 'PM.Anthony' 'golf2.pm' 29 2.0 3.0
283 'PM.Anthony' 'golf2.pm' 30 2.0 3.0
284 'PM.Anthony' 'golf2.pm' 31 2.0 3.0
285 'PM.Anthony' 'golf2.pm' 32 2.0 3.0
286 'PM.Anthony' 'golf2.pm' 35 2.0 3.0
287 'PM.Anthony' 'golf2.pm' 36 2.0 3.0
288 'PM.Anthony' 'golf2.pm' 37 2.0 3.0
289 'PM.Anthony' 'golf2.pm' 38 2.0 3.0
290 'PM.Anthony' 'golf2.pm' 39 2.0 3.0
291 'PM.Anthony' 'golf2.pm' 42 2.0 3.0
292 'PM.Anthony' 'golf2.pm' 43 2.0 3.0
293 'PM.Anthony' 'golf2.pm' 44 2.0 3.0
294 'PM.Anthony' 'golf2.pm' 45 2.0 3.0
295 'PM.Anthony' 'golf2.pm' 46 2.0 3.0
296 'PM.Anthony' 'golf2.pm' 49 2.0 3.0
297 'PM.Anthony' 'golf2.pm' 50 2.0 3.0
298 'PM.Anthony' 'golf2.pm' 51 2.0 3.0
299 'PM.Anthony' 'golf2.pm' 52 2.0 3.0
300 'PM.Anthony' 'golf2.pm' 53 2.0 3.0
301 'PM.Anthony' 'golf2.pm' 56 2.0 3.0
302 'PM.Anthony' 'golf2.pm' 57 2.0 3.0
303 'PM.Anthony' 'golf2.pm' 58 2.0 3.0
304 'PM.Anthony' 'golf2.pm' 59 2.0 3.0
305 'PM.Anthony' 'golf2.pm' 60 2.0 3.0
306 'PM.Anthony' 'golf2.pm' 63 2.0 3.0
307 'PM.Anthony' 'golf2.pm' 64 2.0 3.0
308 'PM.Anthony' 'golf2.pm' 65 2.0 3.0
309 'PM.Anthony' 'golf2.pm' 66 2.0 3.0
310 'PM.Anthony' 'golf2.pm' 67 2.0 3.0
311 'PM.Anthony' 'golf2.pm' 70 2.0 3.0
312 'PM.Anthony' 'golf2.pm' 71 2.0 3.0
313 'PM.Anthony' 'golf2.pm' 72 2.0 3.0
314 'PM.Anthony' 'golf2.pm' 73 2.0 3.0
315 'PM.Anthony' 'golf2.pm' 74 2.0 3.0
316 'PM.Anthony' 'golf2.pm' 77 2.0 3.0
317 'PM.Anthony' 'golf2.pm' 78 2.0 3.0
318 'PM.Anthony' 'golf2.pm' 79 2.0 3.0
319 'PM.Anthony' 'golf2.pm' 80 2.0 3.0
320 'PM.Anthony' 'golf2.pm' 81 2.0 3.0
321 'PM.Anthony' 'golf2.pf' 84 10.0 11.0
322 'PM.Anthony' 'golf2.pf' 85 10.0 11.0
323 'PM.Anthony' 'golf2.pf' 86 10.0 11.0
324 'PM.Anthony' 'golf2.pf' 87 10.0 11.0
325 'PM.Anthony' 'golf2.pf' 88 10.0 11.0
326 'PM.Anthony' 'golf2.pf' 91 10.0 11.0
327 'PM.Anthony' 'hotel2.pm' 3 1.0 2.0
328 'PM.Anthony' 'hotel2.pm' 4 1.0 2.0
329 'PM.Anthony' 'hotel2.pm' 7 1.0 2.0
330 'PM.Anthony' 'hotel2.pm' 8 1.0 2.0
331 'PM.Anthony' 'hotel2.pm' 9 1.0 2.0
332 'PM.Anthony' 'hotel2.pm' 10 1.0 2.0
333 'PM.Anthony' 'hotel2.pm' 11 1.0 2.0
334 'PM.Anthony' 'hotel2.pm' 14 1.0 2.0
335 'PM.Anthony' 'hotel2.pm' 15 1.0 2.0
336 'PM.Anthony' 'hotel2.pm' 16 1.0 2.0
337 'PM.Anthony' 'hotel2.pm' 17 1.0 2.0
338 'PM.Anthony' 'hotel2.pm' 18 1.0 2.0
339 'PM.Anthony' 'hotel2.pm' 21 1.0 2.0
340 'PM.Anthony' 'hotel2.pm' 22 1.0 2.0
341 'PM.Anthony' 'hotel2.pm' 23 1.0 2.0
342 'PM.Anthony' 'hotel2.pm' 24 1.0 2.0
343 'PM.Anthony' 'hotel2.pm' 25 1.0 2.0
344 'PM.Anthony' 'hotel2.pm' 28 1.0 2.0
345 'PM.Anthony' 'hotel2.pm' 29 1.0 2.0
346 'PM.Anthony' 'hotel2.pm' 30 1.0 2.0
347 'PM.Anthony' 'hotel2.pm' 31 1.0 2.0
348 'PM.Anthony' 'hotel2.pm' 32 1.0 2.0
349 'PM.Anthony' 'hotel2.pm' 35 1.0 2.0
350 'PM.Anthony' 'hotel2.pm' 36 1.0 2.0
351 'PM.Anthony' 'hotel2.pm' 37 1.0 2.0
352 'PM.Anthony' 'hotel2.pm' 38 1.0 2.0
353 'PM.Anthony' 'hotel2.pm' 39 1.0 2.0
354 'PM.Anthony' 'hotel2.pm' 42 1.0 2.0
355 'PM.Anthony' 'hotel2.pm' 43 1.0 2.0
356 'PM.Anthony' 'hotel2.pm' 44 1.0 2.0
357 'PM.Anthony' 'hotel2.pm' 45 1.0 2.0
358 'PM.Anthony' 'hotel2.pm' 46 1.0 2.0
359 'PM.Anthony' 'hotel2.pf' 49 2.0 3.0
360 'PM.Anthony' 'hotel2.pf' 50 2.0 3.0
361 'PM.Anthony' 'hotel2.pf' 51 2.0 3.0
362 'PM.Anthony' 'hotel2.pf' 52 2.0 3.0
363 'PM.Anthony' 'hotel2.pf' 53 2.0 3.0
364 'PM.Anthony' 'hotel2.pf' 56 2.0 3.0
365 'PM.Anthony' 'hotel2.pf' 57 2.0 3.0
366 'PM.Anthony' 'tango2.pe' 35 20.0 21.0
367 'PM.Anthony' 'tango2.pe' 36 20.0 21.0
368 'PM.Anthony' 'tango2.pe' 37 20.0 21.0
369 'PM.Anthony' 'tango2.pe' 38 20.0 21.0
370 'PM.Anthony' 'tango2.pe' 39 20.0 21.0
371 'PM.Anthony' 'tango2.pe' 42 20.0 21.0
372 'PM.Anthony' 'tango2.pe' 43 20.0 21.0
373 'PM.Anthony' 'tango2.pe' 44 20.0 21.0
374 'PM.Anthony' 'tango2.pe' 45 20.0 21.0
375 'PM.Anthony' 'tango2.pe' 46 20.0 21.0
376 'PM.Anthony' 'tango2.pm' 49 4.0 5.0
377 'PM.Anthony' 'tango2.pm' 50 4.0 5.0
378 'PM.Anthony' 'tango2.pm' 51 4.0 5.0
379 'PM.Anthony' 'tango2.pm' 52 4.0 5.0
380 'PM.Anthony' 'tango2.pm' 53 4.0 5.0
381 'PM.Anthony' 'tango2.pm' 56 4.0 5.0
382 'PM.Anthony' 'tango2.pm' 57 4.0 5.0
383 'PM.Anthony' 'tango2.pm' 58 4.0 5.0
384 'PM.Anthony' 'tango2.pm' 59 4.0 5.0
385 'PM.Anthony' 'tango2.pm' 60 4.0 5.0
386 'PM.Anthony' 'tango2.pm' 63 4.0 5.0
387 'PM.Anthony' 'tango2.pm' 64 4.0 5.0
388 'PM.Anthony' 'tango2.pm' 65 4.0 5.0
389 'PM.Anthony' 'tango2.pm' 66 4.0 5.0
390 'PM.Anthony' 'tango2.pm' 67 4.0 5.0
391 'PM.Anthony' 'tango2.pm' 70 4.0 5.0
392 'PM.Anthony' 'tango2.pm' 71 4.0 5.0
393 'PM.Anthony' 'tango2.pm' 72 4.0 5.0
394 'PM.Anthony' 'tango2.pm' 73 4.0 5.0
395 'PM.Anthony' 'tango2.pm' 74 4.0 5.0
396 'PM.Anthony' 'tango2.pm' 77 4.0 5.0
397 'PM.Anthony' 'tango2.pm' 78 4.0 5.0
398 'PM.Anthony' 'tango2.pm' 79 4.0 5.0
399 'PM.Anthony' 'tango2.pm' 80 4.0 5.0
400 'PM.Anthony' 'tango2.pm' 81 4.0 5.0
401 'PM.Anthony' 'tango2.pm' 84 4.0 5.0
402 'PM.Anthony' 'tango2.pm' 85 4.0 5.0
403 'PM.Anthony' 'tango2.pm' 86 4.0 5.0
404 'PM.Anthony' 'tango2.pm' 87 4.0 5.0
405 'PM.Anthony' 'tango2.pm' 88 4.0 5.0
406 'PM.Anthony' 'tango2.pm' 91 4.0 5.0
407 'PM.Anthony' 'tango2.pm' 92 4.0 5.0
408 'PM.Anthony' 'tango2.pm' 93 4.0 5.0
409 'PM.Anthony' 'tango2.pm' 94 4.0 5.0
410 'PM.Anthony' 'tango2.pm' 95 4.0 5.0
411 'PM.Anthony' 'tango2.pm' 98 4.0 5.0
412 'PM.Anthony' 'tango2.pm' 99 4.0 5.0
413 'PM.Anthony' 'tango2.pm' 100 4.0 5.0
414 'PM.Anthony' 'tango2.pm' 101 4.0 5.0
415 'PM.Anthony' 'tango2.pm' 102 4.0 5.0
416 'PM.Anthony' 'tango2.pm' 105 4.0 5.0
417 'PM.Anthony' 'tango2.pm' 106 4.0 5.0
418 'PM.Anthony' 'tango2.pm' 107 4.0 5.0
419 'PM.Anthony' 'tango2.pm' 108 4.0 5.0
420 'PM.Anthony' 'tango2.pm' 109 4.0 5.0
421 'PM.Anthony' 'tango2.pm' 112 4.0 5.0
422 'PM.Anthony' 'tango2.pm' 113 4.0 5.0
423 'PM.Anthony' 'tango2.pm' 114 4.0 5.0
424 'PM.Anthony' 'tango2.pm' 115 4.0 5.0
425 'PM.Anthony' 'tango2.pm' 116 4.0 5.0
426 'PM.Anthony' 'tango2.pm' 119 4.0 5.0
427 'PM.Anthony' 'tango2.pm' 120 4.0 5.0
428 'PM.Anthony' 'tango2.pm' 121 4.0 5.0
429 'PM.Anthony' 'tango2.pm' 123 4.0 5.0
430 'PM.Anthony' 'tango2.pm' 126 4.0 5.0
431 'PM.Anthony' 'tango2.pm' 127 4.0 5.0
432 'PM.Anthony' 'tango2.pm' 128 4.0 5.0
433 'PM.Anthony' 'tango2.pm' 129 4.0 5.0
434 'PM.Anthony' 'tango2.pm' 130 4.0 5.0
435 'PM.Anthony' 'tango2.pm' 133 4.0 5.0
436 'PM.Anthony' 'tango2.pm' 134 4.0 5.0
437 'PM.Anthony' 'tango2.pm' 135 4.0 5.0
438 'PM.Anthony' 'tango2.pm' 136 4.0 5.0
439 'PM.Anthony' 'tango2.pm' 137 4.0 5.0
440 'PM.Anthony' 'tango2.pm' 140 4.0 5.0
441 'PM.Anthony' 'tango2.pm' 141 4.0 5.0
442 'PM.Anthony' 'tango2.pm' 142 4.0 5.0
443 'PM.Anthony' 'tango2.pm' 143 4.0 5.0
444 'PM.Anthony' 'tango2.pm' 144 4.0 5.0
445 'PM.Anthony' 'tango2.pm' 147 4.0 5.0
446 'PM.Anthony' 'tango2.pm' 148 4.0 5.0
447 'PM.Anthony' 'tango2.pm' 149 4.0 5.0
448 'PM.Anthony' 'tango2.pm' 150 4.0 5.0
449 'PM.Anthony' 'tango2.pm' 151 4.0 5.0
450 'PM.Anthony' 'tango2.pm' 154 4.0 5.0
451 'PM.Anthony' 'tango2.pm' 155 4.0 5.0
452 'PM.Anthony' 'tango2.pm' 156 4.0 5.0
453 'PM.Anthony' 'tango2.pm' 157 4.0 5.0
454 'PM.Anthony' 'tango2.pm' 158 4.0 5.0
455 'PM.Anthony' 'tango2.pm' 161 4.0 5.0
456 'PM.Anthony' 'tango2.pm' 162 4.0 5.0
457 'PM.Anthony' 'tango2.pm' 163 4.0 5.0
458 'PM.Anthony' 'tango2.pm' 164 4.0 5.0
459 'PM.Anthony' 'tango2.pm' 165 4.0 5.0
460 'PM.Anthony' 'tango2.pm' 168 4.0 5.0
461 'PM.Anthony' 'tango2.pm' 169 4.0 5.0
462 'PM.Anthony' 'tango2.pm' 170 4.0 5.0
463 'PM.Anthony' 'tango2.pm' 171 4.0 5.0
464 'PM.Anthony' 'tango2.pm' 172 4.0 5.0
465 'PM.Anthony' 'tango2.pm' 175 4.0 5.0
466 'PM.Anthony' 'tango2.pm' 176 4.0 5.0
467 'PM.Anthony' 'tango2.pm' 177 4.0 5.0
468 'PM.Anthony' 'tango2.pm' 178 4.0 5.0
469 'PM.Anthony' 'tango2.pm' 179 4.0 5.0
470 'PM.Anthony' 'tango2.pm' 182 4.0 5.0
471 'PM.Anthony' 'tango2.pm' 183 4.0 5.0
472 'PM.Anthony' 'tango2.pm' 184 4.0 5.0
473 'PM.Anthony' 'tango2.pm' 185 4.0 5.0
474 'PM.Anthony' 'tango2.pm' 186 4.0 5.0
475 'PM.Anthony' 'tango2.pm' 189 4.0 5.0
476 'PM.Anthony' 'tango2.pm' 190 4.0 5.0
477 'PM.Anthony' 'tango2.pm' 191 4.0 5.0
478 'PM.Anthony' 'tango2.pm' 192 4.0 5.0
479 'PM.Anthony' 'tango2.pm' 193 4.0 5.0
480 'PM.Anthony' 'tango2.pm' 196 4.0 5.0
481 'PM.Anthony' 'tango2.pm' 197 4.0 5.0
482 'PM.Anthony' 'tango2.pm' 198 4.0 5.0
483 'PM.Anthony' 'tango2.pm' 199 4.0 5.0
484 'PM.Anthony' 'tango2.pm' 200 4.0 5.0
485 'PM.Anthony' 'tango2.pm' 203 4.0 5.0
486 'PM.Anthony' 'tango2.pm' 204 4.0 5.0
487 'PM.Anthony' 'tango2.pm' 205 4.0 5.0
488 'PM.Anthony' 'tango2.pm' 206 4.0 5.0
489 'PM.Anthony' 'tango2.pm' 207 4.0 5.0
490 'PM.Anthony' 'tango2.pm' 210 4.0 5.0
491 'PM.Anthony' 'tango2.pm' 211 4.0 5.0
492 'PM.Anthony' 'tango2.pm' 212 4.0 5.0
493 'PM.Anthony' 'tango2.pm' 213 4.0 5.0
494 'PM.Anthony' 'tango2.pm' 214 4.0 5.0
495 'PM.Anthony' 'tango2.pm' 217 4.0 5.0
496 'PM.Anthony' 'tango2.pm' 218 4.0 5.0
497 'PM.Anthony' 'tango2.pm' 219 4.0 5.0
498 'PM.Anthony' 'tango2.pm' 220 4.0 5.0
499 'PM.Anthony' 'tango2.pm' 221 4.0 5.0
500 'PM.Anthony' 'tango2.pm' 224 4.0 5.0
501 'PM.Anthony' 'tango2.pm' 225 4.0 5.0
502 'PM.Anthony' 'tango2.pm' 226 4.0 5.0
503 'PM.Anthony' 'tango2.pm' 227 4.0 5.0
504 'PM.Anthony' 'tango2.pm' 228 4.0 5.0
505 'PM.Anthony' 'tango2.pm' 231 4.0 5.0
506 'PM.Anthony' 'tango2.pm' 232 4.0 5.0
507 'PM.Anthony' 'tango2.pm' 233 4.0 5.0
508 'PM.Anthony' 'tango2.pm' 234 4.0 5.0
509 'PM.Anthony' 'tango2.pm' 235 4.0 5.0
510 'PM.Anthony' 'tango2.pm' 238 4.0 5.0
511 'PM.Anthony' 'tango2.pm' 239 4.0 5.0
512 'PM.Anthony' 'tango2.pm' 240 4.0 5.0
513 'PM.Anthony' 'tango2.pm' 241 4.0 5.0
514 'PM.Anthony' 'tango2.pm' 242 4.0 5.0
515 'PM.Anthony' 'tango2.pm' 245 4.0 5.0
516 'PM.Anthony' 'tango2.pm' 246 4.0 5.0
517 'PM.Anthony' 'tango2.pm' 247 4.0 5.0
518 'PM.Anthony' 'tango2.pm' 248 4.0 5.0
519 'PM.Anthony' 'tango2.pm' 249 4.0 5.0
520 'PM.Anthony' 'tango2.pm' 252 4.0 5.0
521 'PM.Anthony' 'tango2.pm' 253 4.0 5.0
522 'PM.Anthony' 'tango2.pm' 254 4.0 5.0
523 'PM.Anthony' 'tango2.pm' 255 4.0 5.0
524 'PM.Anthony' 'tango2.pm' 256 4.0 5.0
525 'PM.Anthony' 'tango2.pm' 259 4.0 5.0
526 'PM.Anthony' 'tango2.pf' 260 10.0 11.0
527 'PM.Anthony' 'tango2.pf' 261 10.0 11.0
528 'PM.Anthony' 'tango2.pf' 262 10.0 11.0
529 'PM.Anthony' 'tango2.pf' 263 10.0 11.0
530 'PM.Anthony' 'tango2.pf' 266 10.0 11.0
531 'PM.Anthony' 'tango2.pf' 267 10.0 11.0
532 'PM.Anthony' 'tango2.pf' 268 10.0 11.0
533 'PM.Anthony' 'tango2.pf' 269 10.0 11.0
534 'PM.Anthony' 'tango2.pf' 270 10.0 11.0
535 'PM.Anthony' 'tango2.pf' 273 10.0 11.0
536 'PM.Anthony' 'tango2.pf' 274 10.0 11.0
537 'PM.Anthony' 'tango2.pf' 275 10.0 11.0
538 'PM.Anthony' 'uniform2.pe' 123 18.0 19.0
539 'PM.Anthony' 'uniform2.pe' 126 18.0 19.0
540 'PM.Anthony' 'uniform2.pe' 127 18.0 19.0
541 'PM.Anthony' 'uniform2.pe' 128 18.0 19.0
542 'PM.Anthony' 'uniform2.pe' 129 18.0 19.0
543 'PM.Anthony' 'uniform2.pe' 130 18.0 19.0
544 'PM.Anthony' 'uniform2.pe' 133 18.0 19.0
545 'PM.Anthony' 'uniform2.pe' 134 18.0 19.0
546 'PM.Anthony' 'uniform2.pe' 135 18.0 19.0
547 'PM.Anthony' 'uniform2.pe' 136 18.0 19.0
548 'PM.Anthony' 'uniform2.pe' 137 18.0 19.0
549 'PM.Anthony' 'uniform2.pm' 140 3.0 4.0
550 'PM.Anthony' 'uniform2.pm' 141 3.0 4.0
551 'PM.Anthony' 'uniform2.pm' 142 3.0 4.0
552 'PM.Anthony' 'uniform2.pm' 143 3.0 4.0
553 'PM.Anthony' 'uniform2.pm' 144 3.0 4.0
554 'PM.Anthony' 'uniform2.pm' 147 3.0 4.0
555 'PM.Anthony' 'uniform2.pm' 148 3.0 4.0
556 'PM.Anthony' 'uniform2.pm' 149 3.0 4.0
557 'PM.Anthony' 'uniform2.pm' 150 3.0 4.0
558 'PM.Anthony' 'uniform2.pm' 151 3.0 4.0
559 'PM.Anthony' 'uniform2.pm' 154 3.0 4.0
560 'PM.Anthony' 'uniform2.pm' 155 3.0 4.0
561 'PM.Anthony' 'uniform2.pm' 156 3.0 4.0
562 'PM.Anthony' 'uniform2.pm' 157 3.0 4.0
563 'PM.Anthony' 'uniform2.pm' 158 3.0 4.0
564 'PM.Anthony' 'uniform2.pm' 161 3.0 4.0
565 'PM.Anthony' 'uniform2.pm' 162 3.0 4.0
566 'PM.Anthony' 'uniform2.pm' 163 3.0 4.0
567 'PM.Anthony' 'uniform2.pm' 164 3.0 4.0
568 'PM.Anthony' 'uniform2.pm' 165 3.0 4.0
569 'PM.Anthony' 'uniform2.pm' 168 3.0 4.0
570 'PM.Anthony' 'uniform2.pm' 169 3.0 4.0
571 'PM.Anthony' 'uniform2.pm' 170 3.0 4.0
572 'PM.Anthony' 'uniform2.pm' 171 3.0 4.0
573 'PM.Anthony' 'uniform2.pm' 172 3.0 4.0
574 'PM.Anthony' 'uniform2.pm' 175 3.0 4.0
575 'PM.Anthony' 'uniform2.pm' 176 3.0 4.0
576 'PM.Anthony' 'uniform2.pm' 177 3.0 4.0
577 'PM.Anthony' 'uniform2.pm' 178 3.0 4.0
578 'PM.Anthony' 'uniform2.pm' 179 3.0 4.0
579 'PM.Anthony' 'uniform2.pm' 182 3.0 4.0
580 'PM.Anthony' 'uniform2.pm' 183 3.0 4.0
581 'PM.Anthony' 'uniform2.pm' 184 3.0 4.0
582 'PM.Anthony' 'uniform2.pm' 185 3.0 4.0
583 'PM.Anthony' 'uniform2.pm' 186 3.0 4.0
584 'PM.Anthony' 'uniform2.pm' 189 3.0 4.0
585 'PM.Anthony' 'uniform2.pm' 190 3.0 4.0
586 'PM.Anthony' 'uniform2.pm' 191 3.0 4.0
587 'PM.Anthony' 'uniform2.pm' 192 3.0 4.0
588 'PM.Anthony' 'uniform2.pm' 193 3.0 4.0
589 'PM.Anthony' 'uniform2.pm' 196 3.0 4.0
590 'PM.Anthony' 'uniform2.pm' 197 3.0 4.0
591 'PM.Anthony' 'uniform2.pm' 198 3.0 4.0
592 'PM.Anthony' 'uniform2.pm' 199 3.0 4.0
593 'PM.Anthony' 'uniform2.pm' 200 3.0 4.0
594 'PM.Anthony' 'uniform2.pm' 203 3.0 4.0
595 'PM.Anthony' 'uniform2.pm' 204 3.0 4.0
596 'PM.Anthony' 'uniform2.pm' 205 3.0 4.0
597 'PM.Anthony' 'uniform2.pm' 206 3.0 4.0
598 'PM.Anthony' 'uniform2.pm' 207 3.0 4.0
599 'PM.Anthony' 'uniform2.pm' 210 3.0 4.0
600 'PM.Anthony' 'uniform2.pm' 211 3.0 4.0
601 'PM.Anthony' 'uniform2.pm' 212 3.0 4.0
602 'PM.Anthony' 'uniform2.pm' 213 3.0 4.0
603 'PM.Anthony' 'uniform2.pm' 214 3.0 4.0
604 'PM.Anthony' 'uniform2.pm' 217 3.0 4.0
605 'PM.Anthony' 'uniform2.pm' 218 3.0 4.0
606 'PM.Anthony' 'uniform2.pm' 219 3.0 4.0
607 'PM.Anthony' 'uniform2.pm' 220 3.0 4.0
608 'PM.Anthony' 'uniform2.pm' 221 3.0 4.0
609 'PM.Anthony' 'uniform2.pm' 224 3.0 4.0
610 'PM.Anthony' 'uniform2.pm' 225 3.0 4.0
611 'PM.Anthony' 'uniform2.pm' 226 3.0 4.0
612 'PM.Anthony' 'uniform2.pm' 227 3.0 4.0
613 'PM.Anthony' 'uniform2.pm' 228 3.0 4.0
614 'PM.Anthony' 'uniform2.pm' 231 3.0 4.0
615 'PM.Anthony' 'uniform2.pm' 232 3.0 4.0
616 'PM.Anthony' 'uniform2.pm' 233 3.0 4.0
617 'PM.Anthony' 'uniform2.pm' 234 3.0 4.0
618 'PM.Anthony' 'uniform2.pm' 235 3.0 4.0
619 'PM.Anthony' 'uniform2.pm' 238 3.0 4.0
620 'PM.Anthony' 'uniform2.pm' 239 3.0 4.0
621 'PM.Anthony' 'uniform2.pm' 240 3.0 4.0
622 'PM.Anthony' 'uniform2.pm' 241 3.0 4.0
623 'PM.Anthony' 'uniform2.pm' 242 3.0 4.0
624 'PM.Anthony' 'uniform2.pm' 245 3.0 4.0
625 'PM.Anthony' 'uniform2.pm' 246 3.0 4.0
626 'PM.Anthony' 'uniform2.pm' 247 3.0 4.0
627 'PM.Anthony' 'uniform2.pm' 248 3.0 4.0
628 'PM.Anthony' 'uniform2.pm' 249 3.0 4.0
629 'PM.Anthony' 'uniform2.pm' 252 3.0 4.0
630 'PM.Anthony' 'uniform2.pm' 253 3.0 4.0
631 'PM.Anthony' 'uniform2.pm' 254 3.0 4.0
632 'PM.Anthony' 'uniform2.pm' 255 3.0 4.0
633 'PM.Anthony' 'uniform2.pm' 256 3.0 4.0
634 'PM.Anthony' 'uniform2.pm' 259 3.0 4.0
635 'PM.Anthony' 'uniform2.pm' 260 3.0 4.0
636 'PM.Anthony' 'uniform2.pm' 261 3.0 4.0
637 'PM.Anthony' 'uniform2.pm' 262 3.0 4.0
638 'PM.Anthony' 'uniform2.pm' 263 3.0 4.0
639 'PM.Anthony' 'uniform2.pm' 266 3.0 4.0
640 'PM.Anthony' 'uniform2.pm' 267 3.0 4.0
641 'PM.Anthony' 'uniform2.pm' 268 3.0 4.0
642 'PM.Anthony' 'uniform2.pm' 269 3.0 4.0
643 'PM.Anthony' 'uniform2.pm' 270 3.0 4.0
644 'PM.Anthony' 'uniform2.pm' 273 3.0 4.0
645 'PM.Anthony' 'uniform2.pm' 274 3.0 4.0
646 'PM.Anthony' 'uniform2.pm' 275 3.0 4.0
647 'PM.Anthony' 'uniform2.pm' 276 3.0 4.0
648 'PM.Anthony' 'uniform2.pm' 277 3.0 4.0
649 'PM.Anthony' 'uniform2.pm' 280 3.0 4.0
650 'PM.Anthony' 'uniform2.pm' 281 3.0 4.0
651 'PM.Anthony' 'uniform2.pm' 282 3.0 4.0
652 'PM.Anthony' 'uniform2.pm' 283 3.0 4.0
653 'PM.Anthony' 'uniform2.pm' 284 3.0 4.0
654 'PM.Anthony' 'uniform2.pm' 287 3.0 4.0
655 'PM.Anthony' 'uniform2.pm' 288 3.0 4.0
656 'PM.Anthony' 'uniform2.pm' 289 3.0 4.0
657 'PM.Anthony' 'uniform2.pm' 290 3.0 4.0
658 'PM.Anthony' 'uniform2.pm' 291 3.0 4.0
659 'PM.Anthony' 'uniform2.pm' 294 3.0 4.0
660 'PM.Anthony' 'uniform2.pm' 295 3.0 4.0
661 'PM.Anthony' 'uniform2.pm' 296 3.0 4.0
662 'PM.Anthony' 'uniform2.pm' 297 3.0 4.0
663 'PM.Anthony' 'uniform2.pm' 298 3.0 4.0
664 'PM.Anthony' 'uniform2.pm' 301 3.0 4.0
665 'PM.Anthony' 'uniform2.pm' 302 3.0 4.0
666 'PM.Anthony' 'uniform2.pm' 303 3.0 4.0
667 'PM.Anthony' 'uniform2.pm' 304 3.0 4.0
668 'PM.Anthony' 'uniform2.pm' 305 3.0 4.0
669 'PM.Anthony' 'uniform2.pm' 308 3.0 4.0
670 'PM.Anthony' 'uniform2.pm' 309 3.0 4.0
671 'PM.Anthony' 'uniform2.pm' 310 3.0 4.0
672 'PM.Anthony' 'uniform2.pm' 311 3.0 4.0
673 'PM.Anthony' 'uniform2.pm' 312 3.0 4.0
674 'PM.Anthony' 'uniform2.pm' 315 3.0 4.0
675 'PM.Anthony' 'uniform2.pm' 316 3.0 4.0
676 'PM.Anthony' 'uniform2.pm' 317 3.0 4.0
677 'PM.Anthony' 'uniform2.pm' 318 3.0 4.0
678 'PM.Anthony' 'uniform2.pm' 319 3.0 4.0
679 'PM.Anthony' 'uniform2.pm' 322 3.0 4.0
680 'PM.Anthony' 'uniform2.pm' 323 3.0 4.0
681 'PM.Anthony' 'uniform2.pm' 324 3.0 4.0
682 'PM.Anthony' 'uniform2.pm' 325 3.0 4.0
683 'PM.Anthony' 'uniform2.pm' 326 3.0 4.0
684 'PM.Anthony' 'uniform2.pm' 329 3.0 4.0
685 'PM.Anthony' 'uniform2.pm' 330 3.0 4.0
686 'PM.Anthony' 'uniform2.pm' 331 3.0 4.0
687 'PM.Anthony' 'uniform2.pm' 332 3.0 4.0
688 'PM.Anthony' 'uniform2.pm' 333 3.0 4.0
689 'PM.Anthony' 'uniform2.pm' 336 3.0 4.0
690 'PM.Anthony' 'uniform2.pm' 337 3.0 4.0
691 'PM.Anthony' 'uniform2.pm' 338 3.0 4.0
692 'PM.Anthony' 'uniform2.pm' 339 3.0 4.0
693 'PM.Anthony' 'uniform2.pm' 340 3.0 4.0
694 'PM.Anthony' 'uniform2.pm' 343 3.0 4.0
695 'PM.Anthony' 'uniform2.pm' 344 3.0 4.0
696 'PM.Anthony' 'uniform2.pm' 345 3.0 4.0
697 'PM.Anthony' 'uniform2.pm' 346 3.0 4.0
698 'PM.Anthony' 'uniform2.pm' 347 3.0 4.0
699 'PM.Anthony' 'uniform2.pm' 350 3.0 4.0
700 'PM.Anthony' 'uniform2.pm' 351 3.0 4.0
701 'PM.Anthony' 'uniform2.pm' 352 3.0 4.0
702 'PM.Anthony' 'uniform2.pm' 353 3.0 4.0
703 'PM.Anthony' 'uniform2.pm' 354 3.0 4.0
704 'PM.Anthony' 'uniform2.pm' 357 3.0 4.0
705 'PM.Anthony' 'uniform2.pm' 358 3.0 4.0
706 'PM.Anthony' 'uniform2.pm' 359 3.0 4.0
707 'PM.Anthony' 'uniform2.pm' 360 3.0 4.0
708 'PM.Anthony' 'uniform2.pm' 361 3.0 4.0
709 'PM.Anthony' 'uniform2.pm' 364 3.0 4.0
710 'PM.Anthony' 'uniform2.pm' 365 3.0 4.0
711 'PM.Anthony' 'uniform2.pm' 366 3.0 4.0
712 'PM.Anthony' 'uniform2.pm' 367 3.0 4.0
713 'PM.Anthony' 'uniform2.pm' 368 3.0 4.0
714 'PM.Anthony' 'uniform2.pm' 371 3.0 4.0
715 'PM.Anthony' 'uniform2.pm' 372 3.0 4.0
716 'PM.Anthony' 'uniform2.pm' 373 3.0 4.0
717 'PM.Anthony' 'uniform2.pm' 374 3.0 4.0
718 'PM.Anthony' 'uniform2.pm' 375 3.0 4.0
719 'PM.Anthony' 'uniform2.pm' 378 3.0 4.0
720 'PM.Anthony' 'uniform2.pm' 379 3.0 4.0
721 'PM.Anthony' 'uniform2.pm' 380 3.0 4.0
722 'PM.Anthony' 'uniform2.pm' 381 3.0 4.0
723 'PM.Anthony' 'uniform2.pm' 382 3.0 4.0
724 'PM.Anthony' 'uniform2.pm' 385 3.0 4.0
725 'PM.Anthony' 'uniform2.pm' 386 3.0 4.0
726 'PM.Anthony' 'uniform2.pm' 387 3.0 4.0
727 'PM.Anthony' 'uniform2.pm' 388 3.0 4.0
728 'PM.Anthony' 'uniform2.pm' 389 3.0 4.0
729 'PM.Anthony' 'uniform2.pm' 392 3.0 4.0
730 'PM.Anthony' 'uniform2.pm' 393 3.0 4.0
731 'PM.Anthony' 'uniform2.pm' 394 3.0 4.0
732 'PM.Anthony' 'uniform2.pm' 395 3.0 4.0
733 'PM.Anthony' 'uniform2.pm' 396 3.0 4.0
734 'PM.Anthony' 'uniform2.pm' 399 3.0 4.0
735 'PM.Anthony' 'uniform2.pm' 400 3.0 4.0
736 'PM.Anthony' 'uniform2.pm' 401 3.0 4.0
737 'PM.Anthony' 'uniform2.pm' 402 3.0 4.0
738 'PM.Anthony' 'uniform2.pm' 403 3.0 4.0
739 'PM.Anthony' 'uniform2.pm' 406 3.0 4.0
740 'PM.Anthony' 'uniform2.pm' 407 3.0 4.0
741 'PM.Anthony' 'uniform2.pm' 408 3.0 4.0
742 'PM.Anthony' 'uniform2.pf' 409 6.0 7.0
743 'PM.Anthony' 'uniform2.pf' 410 6.0 7.0
744 'PM.Anthony' 'uniform2.pf' 413 6.0 7.0
745 'PM.Anthony' 'uniform2.pf' 414 6.0 7.0
746 'PM.Anthony' 'uniform2.pf' 415 6.0 7.0
747 'PM.Anthony' 'uniform2.pf' 416 6.0 7.0
748 'PM.Anthony' 'uniform2.pf' 417 6.0 7.0
749 'PM.Anthony' 'uniform2.pf' 420 6.0 7.0
750 'PM.Anthony' 'uniform2.pf' 421 6.0 7.0
751 'PM.Anthony' 'uniform2.pf' 422 6.0 7.0
752 'PM.Anthony' 'uniform2.pf' 423 6.0 7.0
753 'PM.Anthony' 'uniform2.pf' 424 6.0 7.0
754 'PM.Anthony' 'uniform2.pf' 427 6.0 7.0;

param XBSUM_NO := 0;

param XBSUM:
1   2   3   4   5   6 :=
;

param UBDAY_NO := 0;

param UBDAY:
1   2   3   4 :=
;

param UBSUM_NO := 0;

param UBSUM:
1   2   3   4   5   6 :=
;

set LINKS :=
'PM.Anthony' 'delta2.pf'
'PM.Anthony' 'delta2.pm'
'PM.Anthony' 'echo2.pf'
'PM.Anthony' 'echo2.pm'
'PM.Anthony' 'foxtrot2.pf'
'PM.Anthony' 'foxtrot2.pm'
'PM.Anthony' 'gamma2.pf'
'PM.Anthony' 'gamma2.pm'
'PM.Anthony' 'golf2.pf'
'PM.Anthony' 'golf2.pm'
'PM.Anthony' 'hotel2.pf'
'PM.Anthony' 'hotel2.pm'
'PM.Anthony' 'tango2.pe'
'PM.Anthony' 'tango2.pf'
'PM.Anthony' 'tango2.pm'
'PM.Anthony' 'uniform2.pe'
'PM.Anthony' 'uniform2.pf'
'PM.Anthony' 'uniform2.pm';

